
Gurobi 9.1.2 (win64, Java) logging started Fri Nov  5 12:00:27 2021

Academic license - for non-commercial use only - expires 2022-10-30
Gurobi Optimizer version 9.1.2 build v9.1.2rc0 (win64)
Thread count: 6 physical cores, 12 logical processors, using up to 12 threads
Optimize a model with 30 rows, 200 columns and 400 nonzeros
Model fingerprint: 0xd84224ab
Variable types: 0 continuous, 200 integer (200 binary)
Coefficient statistics:
  Matrix range     [1e+00, 1e+03]
  Objective range  [2e+01, 9e+02]
  Bounds range     [1e+00, 1e+00]
  RHS range        [1e+00, 8e+02]
Found heuristic solution: objective 8527.0000000
Presolve removed 8 rows and 116 columns
Presolve time: 0.00s
Presolved: 22 rows, 84 columns, 167 nonzeros
Variable types: 0 continuous, 84 integer (84 binary)
Presolved: 22 rows, 84 columns, 167 nonzeros


Root relaxation: objective 9.179614e+03, 61 iterations, 0.00 seconds

    Nodes    |    Current Node    |     Objective Bounds      |     Work
 Expl Unexpl |  Obj  Depth IntInf | Incumbent    BestBd   Gap | It/Node Time

     0     0 9179.61378    0    8 8527.00000 9179.61378  7.65%     -    0s
H    0     0                    8752.0000000 9179.61378  4.89%     -    0s
H    0     0                    8889.0000000 9179.61378  3.27%     -    0s
H    0     0                    9114.0000000 9179.61378  0.72%     -    0s
     0     0 9125.31875    0   12 9114.00000 9125.31875  0.12%     -    0s

Cutting planes:
  Gomory: 3
  Cover: 7
  Clique: 3
  MIR: 2
  Zero half: 1
  RLT: 1

Explored 1 nodes (92 simplex iterations) in 0.02 seconds
Thread count was 12 (of 12 available processors)

Solution count 4: 9114 8889 8752 8527 

Optimal solution found (tolerance 1.00e-04)
Best objective 9.114000000000e+03, best bound 9.114000000000e+03, gap 0.0000%
